language ESSENCE' 1.0

letting dataset_ExplicitBoundedR6_Length be 4
letting dataset_ExplicitBoundedR6_Values_1_ExplicitVarSizeWithDummy be
        [[1, 2, 3; int(1..3)], [1, 2, 4; int(1..3)], [1, 3, 4; int(1..3)], [2, 3, 4; int(1..3)]; int(1..4)]
$ Visualisation for dataset_ExplicitBoundedR6_Values_1_ExplicitVarSizeWithDummy
$ 1 2 3
$ 1 2 4
$ 1 3 4
$ 2 3 4

letting dataset_ExplicitBoundedR6_Values_2 be [3, 2, 1, 3; int(1..4)]
letting fin1 be 4
letting fin2 be 3
letting fin3 be 1
letting fin4 be 3
letting fin5 be 1
letting fin6 be 3
